p cnf 10 50
-6 4 2 0
-1 -8 6 0
6 -8 -5 0
-7 -5 6 0
-3 -9 8 0
3 5 -1 0
6 -1 9 0
9 -8 5 0
8 2 -10 0
3 -1 -6 0
-4 5 -9 0
3 6 -7 0
-7 10 8 0
-1 -2 -6 0
3 -5 -8 0
-1 9 -4 0
-4 -10 -5 0
10 -2 -9 0
7 5 -1 0
-5 -6 2 0
1 5 -3 0
10 2 -3 0
-8 -2 -3 0
6 -7 3 0
7 -4 2 0
-1 6 -8 0
6 -10 -3 0
-7 4 5 0
-6 -3 -7 0
-2 -5 -3 0
2 3 -8 0
-2 5 -7 0
-7 -1 5 0
1 2 -3 0
-3 -7 -4 0
3 2 -7 0
2 7 8 0
3 -8 -2 0
-5 -2 1 0
2 10 4 0
-2 -5 -10 0
-6 5 10 0
-10 -9 -2 0
3 -5 -8 0
4 -6 2 0
-5 9 2 0
7 -3 -5 0
7 10 -8 0
9 -7 -3 0
10 1 4 0